solution status: optimal solution found
objective value:                    -237.768888888889
C57755                                              1 	(obj:0)
C0206                                               1 	(obj:-1)
C0345                                               1 	(obj:-1)
C0577                                               1 	(obj:-1)
C0903                                               1 	(obj:-1)
C4340                                               1 	(obj:-1)
C4615                                               1 	(obj:-1)
C4900                                               1 	(obj:-1)
C5232                                               1 	(obj:-1)
C5430                                               1 	(obj:-1)
C5645                                               1 	(obj:-1)
C5841                                               1 	(obj:-1)
C6533                                               1 	(obj:-1)
C6924                                               1 	(obj:-1)
C6991                                               1 	(obj:-1)
C7365                                               1 	(obj:-1)
C7429                                               1 	(obj:-1)
C8673                                               1 	(obj:-1)
C8859                                               1 	(obj:-1)
C9057                                               1 	(obj:-1)
C9178                                               1 	(obj:-1)
C9439                                               1 	(obj:-1)
C9670                                               1 	(obj:-1)
C9865                                               1 	(obj:-1)
C9966                                               1 	(obj:-1)
C10225                                              1 	(obj:-1)
C10480                                              1 	(obj:-1)
C10632                                              1 	(obj:-1)
C10930                                              1 	(obj:-1)
C11380                                              1 	(obj:-1)
C11659                                              1 	(obj:-1)
C11729                                              1 	(obj:-1)
C11993                                              1 	(obj:-1)
C12233                                              1 	(obj:-1)
C12309                                              1 	(obj:-1)
C12574                                              1 	(obj:-1)
C12717                                              1 	(obj:-1)
C12982                                              1 	(obj:-1)
C13021                                              1 	(obj:-1)
C13199                                              1 	(obj:-1)
C13414                                              1 	(obj:-1)
C13646                                              1 	(obj:-1)
C13849                                              1 	(obj:-1)
C13980                                              1 	(obj:-1)
C14278                                              1 	(obj:-1)
C14370                                              1 	(obj:-1)
C14499                                              1 	(obj:-1)
C14715                                              1 	(obj:-1)
C15065                                              1 	(obj:-1)
C15435                                              1 	(obj:-1)
C15631                                              1 	(obj:-1)
C15701                                              1 	(obj:-1)
C15895                                              1 	(obj:-1)
C16098                                              1 	(obj:-1)
C17145                                              1 	(obj:-1)
C17563                                              1 	(obj:-1)
C17592                                              1 	(obj:-1)
C17871                                              1 	(obj:-1)
C18090                                              1 	(obj:-1)
C18336                                              1 	(obj:-1)
C18553                                              1 	(obj:-1)
C18825                                              1 	(obj:-1)
C19167                                              1 	(obj:-1)
C19306                                              1 	(obj:-1)
C19555                                              1 	(obj:-1)
C19760                                              1 	(obj:-1)
C19968                                              1 	(obj:-1)
C20029                                              1 	(obj:-1)
C20334                                              1 	(obj:-1)
C20396                                              1 	(obj:-1)
C20607                                              1 	(obj:-1)
C20844                                              1 	(obj:-1)
C20968                                              1 	(obj:-1)
C21309                                              1 	(obj:-1)
C21331                                              1 	(obj:-1)
C21711                                              1 	(obj:-1)
C21941                                              1 	(obj:-1)
C22071                                              1 	(obj:-1)
C22253                                              1 	(obj:-1)
C22436                                              1 	(obj:-1)
C22678                                              1 	(obj:-1)
C22873                                              1 	(obj:-1)
C22945                                              1 	(obj:-1)
C23249                                              1 	(obj:-1)
C23432                                              1 	(obj:-1)
C23511                                              1 	(obj:-1)
C23699                                              1 	(obj:-1)
C23944                                              1 	(obj:-1)
C24028                                              1 	(obj:-1)
C25008                                              1 	(obj:-1)
C25096                                              1 	(obj:-1)
C25453                                              1 	(obj:-1)
C25476                                              1 	(obj:-1)
C25816                                              1 	(obj:-1)
C26165                                              1 	(obj:-1)
C26311                                              1 	(obj:-1)
C26494                                              1 	(obj:-1)
C26694                                              1 	(obj:-1)
C26800                                              1 	(obj:-1)
C26945                                              1 	(obj:-1)
C27154                                              1 	(obj:-1)
C27369                                              1 	(obj:-1)
C27484                                              1 	(obj:-1)
C27683                                              1 	(obj:-1)
C27889                                              1 	(obj:-1)
C28017                                              1 	(obj:-1)
C29364                                              1 	(obj:-1)
C29497                                              1 	(obj:-1)
C29847                                              1 	(obj:-1)
C29935                                              1 	(obj:-1)
C30846                                              1 	(obj:-1)
C31033                                              1 	(obj:-1)
C31316                                              1 	(obj:-1)
C31399                                              1 	(obj:-1)
C31619                                              1 	(obj:-1)
C31879                                              1 	(obj:-1)
C32083                                              1 	(obj:-1)
C32157                                              1 	(obj:-1)
C32288                                              1 	(obj:-1)
C32386                                              1 	(obj:-1)
C32625                                              1 	(obj:-1)
C32727                                              1 	(obj:-1)
C33549                                              1 	(obj:-1)
C33742                                              1 	(obj:-1)
C33800                                              1 	(obj:-1)
C34250                                              1 	(obj:-1)
C34406                                              1 	(obj:-1)
C34469                                              1 	(obj:-1)
C34999                                              1 	(obj:-1)
C35060                                              1 	(obj:-1)
C35163                                              1 	(obj:-1)
C35630                                              1 	(obj:-1)
C35755                                              1 	(obj:-1)
C36096                                              1 	(obj:-1)
C36260                                              1 	(obj:-1)
C36461                                              1 	(obj:-1)
C36576                                              1 	(obj:-1)
C36843                                              1 	(obj:-1)
C36944                                              1 	(obj:-1)
C37070                                              1 	(obj:-1)
C37247                                              1 	(obj:-1)
C37548                                              1 	(obj:-1)
C37573                                              1 	(obj:-1)
C37813                                              1 	(obj:-1)
C38055                                              1 	(obj:-1)
C38246                                              1 	(obj:-1)
C38402                                              1 	(obj:-1)
C39078                                              1 	(obj:-1)
C39218                                              1 	(obj:-1)
C39426                                              1 	(obj:-1)
C39675                                              1 	(obj:-1)
C39719                                              1 	(obj:-1)
C40818                                              1 	(obj:-1)
C41037                                              1 	(obj:-1)
C41114                                              1 	(obj:-1)
C41391                                              1 	(obj:-1)
C41489                                              1 	(obj:-1)
C41749                                              1 	(obj:-1)
C41820                                              1 	(obj:-1)
C42121                                              1 	(obj:-1)
C42302                                              1 	(obj:-1)
C42415                                              1 	(obj:-1)
C42641                                              1 	(obj:-1)
C42753                                              1 	(obj:-1)
C43306                                              1 	(obj:-1)
C43489                                              1 	(obj:-1)
C43667                                              1 	(obj:-1)
C43760                                              1 	(obj:-1)
C43972                                              1 	(obj:-1)
C44203                                              1 	(obj:-1)
C44373                                              1 	(obj:-1)
C44469                                              1 	(obj:-1)
C44767                                              1 	(obj:-1)
C44792                                              1 	(obj:-1)
C45114                                              1 	(obj:-1)
C45154                                              1 	(obj:-1)
C45397                                              1 	(obj:-1)
C45624                                              1 	(obj:-1)
C45832                                              1 	(obj:-1)
C45840                                              1 	(obj:-1)
C46043                                              1 	(obj:-1)
C46201                                              1 	(obj:-1)
C46415                                              1 	(obj:-1)
C46681                                              1 	(obj:-1)
C46950                                              1 	(obj:-1)
C47117                                              1 	(obj:-1)
C47361                                              1 	(obj:-1)
C47456                                              1 	(obj:-1)
C47571                                              1 	(obj:-1)
C48724                                              1 	(obj:-1)
C48870                                              1 	(obj:-1)
C49029                                              1 	(obj:-1)
C49146                                              1 	(obj:-1)
C49340                                              1 	(obj:-1)
C49506                                              1 	(obj:-1)
C49712                                              1 	(obj:-1)
C49863                                              1 	(obj:-1)
C50055                                              1 	(obj:-1)
C50300                                              1 	(obj:-1)
C50422                                              1 	(obj:-1)
C50639                                              1 	(obj:-1)
C50713                                              1 	(obj:-1)
C51011                                              1 	(obj:-1)
C51102                                              1 	(obj:-1)
C51411                                              1 	(obj:-1)
C51542                                              1 	(obj:-1)
C51767                                              1 	(obj:-1)
C51860                                              1 	(obj:-1)
C52007                                              1 	(obj:-1)
C52142                                              1 	(obj:-1)
C52371                                              1 	(obj:-1)
C52548                                              1 	(obj:-1)
C52766                                              1 	(obj:-1)
C52896                                              1 	(obj:-1)
C53059                                              1 	(obj:-1)
C53255                                              1 	(obj:-1)
C53392                                              1 	(obj:-1)
C53673                                              1 	(obj:-1)
C53872                                              1 	(obj:-1)
C54021                                              1 	(obj:-1)
C54151                                              1 	(obj:-1)
C54244                                              1 	(obj:-1)
C54472                                              1 	(obj:-1)
C54641                                              1 	(obj:-1)
C54866                                              1 	(obj:-1)
C54940                                              1 	(obj:-1)
C55126                                              1 	(obj:-1)
C55301                                              1 	(obj:-1)
C55640                                              1 	(obj:-1)
C55944                                              1 	(obj:-1)
C56104                                              1 	(obj:-1)
C56193                                              1 	(obj:-1)
C56411                                              1 	(obj:-1)
C56565                                              1 	(obj:-1)
C56810                                              1 	(obj:-1)
C56946                                              1 	(obj:-1)
C57202                                              1 	(obj:-1)
C57284                                              1 	(obj:-1)
C57549                                              1 	(obj:-1)
C57577                                              1 	(obj:0.0022222222)
C57578                                              1 	(obj:0.0066666667)
C57583                                              1 	(obj:0.0022222222)
C57584                                              1 	(obj:0.0066666667)
C57585                                              1 	(obj:0.0066666667)
C57587                                              1 	(obj:0.0022222222)
C57588                                              1 	(obj:0.0022222222)
C57589                                              1 	(obj:0.0066666667)
C57591                                              1 	(obj:0.0111111111)
C57592                                              1 	(obj:0.0022222222)
C57593                                              1 	(obj:0.0022222222)
C57594                                              1 	(obj:0.0022222222)
C57595                                              1 	(obj:0.0022222222)
C57596                                              1 	(obj:0.0066666667)
C57599                                              1 	(obj:0.0022222222)
C57600                                              1 	(obj:0.0066666667)
C57601                                              1 	(obj:0.0111111111)
C57602                                              1 	(obj:0.0111111111)
C57603                                              1 	(obj:0.0111111111)
C57605                                              1 	(obj:0.0022222222)
C57606                                              1 	(obj:0.0111111111)
C57608                                              1 	(obj:0.0066666667)
C57609                                              1 	(obj:0.0066666667)
C57610                                              1 	(obj:0.0066666667)
C57611                                              1 	(obj:0.0111111111)
C57612                                              1 	(obj:0.0111111111)
C57613                                              1 	(obj:0.0066666667)
C57614                                              1 	(obj:0.0111111111)
C57615                                              1 	(obj:0.0066666667)
C57616                                              1 	(obj:0.0111111111)
C57618                                              1 	(obj:0.0066666667)
C57619                                              1 	(obj:0.0066666667)
C57620                                              1 	(obj:0.0111111111)
C57621                                              1 	(obj:0.0111111111)
C57623                                              1 	(obj:0)
C57626                                              1 	(obj:0)
C57641                                              1 	(obj:0)
C57644                                              1 	(obj:0)
C57647                                              1 	(obj:0)
C57653                                              1 	(obj:0)
C57656                                              1 	(obj:0)
C57659                                              1 	(obj:0)
C57665                                              1 	(obj:0)
C57668                                              1 	(obj:0)
C57671                                              1 	(obj:0)
C57674                                              1 	(obj:0)
C57677                                              1 	(obj:0)
C57680                                              1 	(obj:0)
C57689                                              1 	(obj:0)
C57692                                              1 	(obj:0)
C57695                                              1 	(obj:0)
C57698                                              1 	(obj:0)
C57701                                              1 	(obj:0)
C57706                                              1 	(obj:0)
C57710                                              1 	(obj:0)
C57716                                              1 	(obj:0)
C57718                                              1 	(obj:0)
C57722                                              1 	(obj:0)
C57725                                              1 	(obj:0)
C57728                                              1 	(obj:0)
C57731                                              1 	(obj:0)
C57734                                              1 	(obj:0)
C57737                                              1 	(obj:0)
C57740                                              1 	(obj:0)
C57746                                              1 	(obj:0)
C57749                                              1 	(obj:0)
C57752                                              1 	(obj:0)
